D = 5;
P = 8;
T = 10;
G = 4;
L = 129;
S = 19;
lesson_teacher = [3,3,3,3,3,3,2,4,4,4,4,4,4,4,4,4,4,5,4,4,6,6,5,5,5,5,5,5,5,5,4,4,4,4,4,4,4,4,2,2,3,3,7,7,7,7,7,7,7,7,8,8,8,8,8,8,8,8,5,5,5,5,5,5,1,8,8,8,8,7,7,7,7,7,7,7,1,1,1,1,1,1,8,1,1,6,6,6,6,6,6,6,6,1,1,1,1,1,1,1,1,1,1,1,1,1,1,6,6,6,6,9,9,9,9,9,9,9,9,7,7,7,7,7,7,7,7,1,1];
lesson_subject = [1,1,1,1,1,1,1,1,1,1,1,1,1,2,2,2,2,2,2,2,3,3,4,4,4,4,4,4,4,4,4,4,4,4,4,4,4,4,5,5,5,5,6,6,6,6,6,6,6,6,6,6,6,6,6,6,6,6,7,7,7,7,7,7,8,8,8,8,8,9,9,9,9,9,9,9,10,10,11,11,11,11,11,11,11,12,12,12,12,12,12,12,12,12,12,12,12,12,12,12,12,13,13,13,13,13,13,14,14,14,14,15,15,15,15,15,15,15,15,16,16,16,16,16,16,16,16,17,17];
lesson_grades = [{1},{2},{1},{2},{3},{4},{1},{3},{4},{3},{4},{1},{2},{1},{2},{1},{2},{3},{4},{4},{4},{4},{2},{2},{2},{2},{1},{1},{1},{1},{3},{3},{3},{3},{4},{4},{4},{4},{1},{2},{3},{4},{2},{2},{2},{2},{1},{1},{1},{1},{4},{4},{4},{4},{3},{3},{3},{3},{2},{3},{2},{3},{2},{3},{2},{3},{4},{3},{4},{1},{1},{2},{3},{4},{3},{4},{3},{4},{1},{2},{1},{2},{4},{3},{3},{2},{2},{2},{2},{1},{1},{1},{1},{4},{4},{4},{4},{3},{3},{3},{3},{1},{2},{1},{2},{3},{4},{2},{3},{3},{4},{1},{2},{1},{2},{3},{4},{3},{4},{1},{1},{2},{2},{4},{4},{3},{3},{3},{4}];
lesson_group = [1000000,1000000,1000001,1000001,1000002,1000002,0,1000003,1000003,1000004,1000004,1000005,1000005,1000006,1000006,1000007,1000007,0,0,0,0,0,0,0,0,0,0,0,0,0,0,0,0,0,0,0,0,0,1000008,1000008,1000009,1000009,0,0,0,0,0,0,0,0,0,0,0,0,0,0,0,0,1000010,1000010,1000011,1000011,1000012,1000012,0,1000013,1000013,1000014,1000014,0,0,0,1000015,1000015,1000016,1000016,0,0,1000017,1000017,1000018,1000018,0,0,0,0,0,0,0,0,0,0,0,0,0,0,0,0,0,0,0,1000019,1000019,1000020,1000020,1000021,1000021,0,0,0,0,1000022,1000022,1000023,1000023,1000024,1000024,1000025,1000025,0,0,0,0,0,0,0,0,1000026,1000026];
lesson_week = [0,0,0,0,0,0,0,0,0,0,0,0,0,0,0,0,0,0,0,0,0,0,0,0,0,0,0,0,0,0,0,0,0,0,0,0,0,0,0,0,0,0,0,0,0,0,0,0,0,0,0,0,0,0,0,0,0,0,0,0,0,0,0,0,0,0,0,0,0,0,0,0,0,0,0,0,0,0,0,0,0,0,0,0,0,0,0,0,0,0,0,0,0,0,0,0,0,0,0,0,0,0,0,0,0,0,0,0,0,0,0,0,0,0,0,0,0,0,0,0,0,0,0,0,0,0,0,1,1];
lesson_spec_id = [1,1,1,1,2,2,3,4,4,4,4,5,5,6,6,6,6,7,8,8,9,9,10,10,10,10,11,11,11,11,12,12,12,12,13,13,13,13,14,14,15,15,16,16,16,16,17,17,17,17,18,18,18,18,19,19,19,19,20,20,20,20,20,20,21,22,22,22,22,23,23,24,25,25,25,25,26,27,28,28,28,28,29,30,30,31,31,31,31,32,32,32,32,33,33,33,33,34,34,34,34,35,35,35,35,36,36,37,38,38,39,40,40,40,40,41,41,41,41,42,42,43,43,44,44,45,45,46,46];
lesson_occ_idx = [0,0,1,1,0,0,0,0,0,1,1,0,0,0,0,1,1,0,0,1,0,1,0,1,2,3,0,1,2,3,0,1,2,3,0,1,2,3,0,0,0,0,0,1,2,3,0,1,2,3,0,1,2,3,0,1,2,3,0,0,1,1,2,2,0,0,0,1,1,0,1,0,0,0,1,1,0,0,0,0,1,1,0,0,1,0,1,2,3,0,1,2,3,0,1,2,3,0,1,2,3,0,0,1,1,0,0,0,0,1,0,0,0,1,1,0,0,1,1,0,1,0,1,0,1,0,1,0,0];
lesson_block_id = [-1,-1,-1,-1,-1,-1,-1,-1,-1,-1,-1,-1,-1,-1,-1,-1,-1,-1,-1,-1,-1,-1,-1,-1,-1,-1,-1,-1,-1,-1,-1,-1,-1,-1,-1,-1,-1,-1,-1,-1,-1,-1,-1,-1,-1,-1,-1,-1,-1,-1,-1,-1,-1,-1,-1,-1,-1,-1,0,0,0,0,0,0,-1,-1,-1,-1,-1,-1,-1,-1,-1,-1,-1,-1,-1,-1,-1,-1,-1,-1,-1,-1,-1,-1,-1,-1,-1,-1,-1,-1,-1,-1,-1,-1,-1,-1,-1,-1,-1,-1,-1,-1,-1,-1,-1,-1,-1,-1,-1,-1,-1,-1,-1,-1,-1,-1,-1,-1,-1,-1,-1,-1,-1,-1,-1,-1,-1];
lesson_block_size = [1,1,1,1,1,1,1,1,1,1,1,1,1,1,1,1,1,1,1,1,1,1,1,1,1,1,1,1,1,1,1,1,1,1,1,1,1,1,1,1,1,1,1,1,1,1,1,1,1,1,1,1,1,1,1,1,1,1,3,3,3,3,3,3,1,1,1,1,1,1,1,1,1,1,1,1,1,1,1,1,1,1,1,1,1,1,1,1,1,1,1,1,1,1,1,1,1,1,1,1,1,1,1,1,1,1,1,1,1,1,1,1,1,1,1,1,1,1,1,1,1,1,1,1,1,1,1,1,1];
lesson_auto = [true,true,true,true,true,true,true,true,true,true,true,true,true,true,true,true,true,true,true,true,true,true,true,true,true,true,true,true,true,true,true,true,true,true,true,true,true,true,true,true,true,true,true,true,true,true,true,true,true,true,true,true,true,true,true,true,true,true,false,false,false,false,false,false,true,true,true,true,true,true,true,true,true,true,true,true,true,true,true,true,true,true,true,true,true,true,true,true,true,true,true,true,true,true,true,true,true,true,true,true,true,true,true,true,true,true,true,true,true,true,true,true,true,true,true,true,true,true,true,true,true,true,true,true,true,true,true,true,true];
lesson_pinned = [false,false,false,false,false,false,false,false,false,false,false,false,false,false,false,false,false,false,false,false,false,false,false,false,false,false,false,false,false,false,false,false,false,false,false,false,false,false,false,false,false,false,false,false,false,false,false,false,false,false,false,false,false,false,false,false,false,false,false,false,false,false,false,false,false,false,false,false,false,false,false,false,false,false,false,false,false,false,false,false,false,false,false,false,false,false,false,false,false,false,false,false,false,false,false,false,false,false,false,false,false,false,false,false,false,false,false,false,false,false,false,false,false,false,false,false,false,false,false,false,false,false,false,false,false,false,false,false,false];
lesson_pin_slot = [1,1,1,1,1,1,1,1,1,1,1,1,1,1,1,1,1,1,1,1,1,1,1,1,1,1,1,1,1,1,1,1,1,1,1,1,1,1,1,1,1,1,1,1,1,1,1,1,1,1,1,1,1,1,1,1,1,1,1,1,1,1,1,1,1,1,1,1,1,1,1,1,1,1,1,1,1,1,1,1,1,1,1,1,1,1,1,1,1,1,1,1,1,1,1,1,1,1,1,1,1,1,1,1,1,1,1,1,1,1,1,1,1,1,1,1,1,1,1,1,1,1,1,1,1,1,1,1,1];
subject_max_consec = [99,99,99,2,99,2,99,99,99,99,99,2,99,99,99,99,99,99,99];
subject_is_main = [false,false,false,true,false,true,false,false,false,false,false,true,false,false,false,false,false,false,false];
w_no_free = 100;
w_main_aft = 100;
w_any_aft = 15;
afternoon_start = 7;
w_main_run = 75;
max_consec_main = 2;
w_main_early = 75;
w_compact = 75;
min_daily_slots = 4;
must_start_p1 = true;
teacher_blocked = array3d(1..10, 1..5, 1..8, [false,false,false,false,false,false,false,false,false,false,false,false,false,false,false,false,false,false,false,false,false,false,false,false,false,false,false,false,false,false,false,false,false,false,false,false,false,false,false,false,false,false,false,false,false,false,false,false,false,false,false,false,false,false,false,false,false,false,false,false,false,false,false,false,false,false,false,false,false,false,false,false,false,false,false,false,false,false,false,false,true,true,true,true,true,true,true,true,true,true,true,true,true,true,true,true,false,false,false,false,false,false,false,false,false,false,false,false,false,true,true,true,true,true,true,true,true,true,true,true,false,false,false,false,false,false,false,false,false,false,false,false,false,false,false,false,false,false,false,false,false,false,false,false,false,false,false,false,false,false,false,false,false,false,false,false,false,false,false,false,false,false,false,false,false,false,false,false,false,false,false,false,false,false,false,false,false,false,false,false,false,false,false,false,false,false,false,false,false,false,false,false,false,false,false,false,false,false,false,false,false,false,false,false,false,false,false,false,false,false,false,false,false,false,false,false,false,false,false,false,false,false,false,false,false,false,false,false,false,false,false,false,false,false,false,false,false,false,false,false,false,false,false,false,false,false,false,false,false,false,false,false,false,false,false,false,false,false,false,false,false,false,false,false,false,false,false,false,false,false,false,false,false,false,false,false,false,false,false,false,false,false,false,false,false,false,false,false,false,false,false,false,false,false,false,false,false,false,false,false,false,false,false,false,false,false,false,false,false,false,false,false,false,false,false,false,false,false,false,false,false,false,false,false,false,false,false,false,false,false,false,false,false,false,false,false,false,false,false,false,false,false,false,false,false,false,false,false,false,false,false,false,false,false,false,false,false,false,false,false,false,false,false,false,false,false,false,false,false,false,false,false,false,false,false,false,false,false,false,false,false,false,false,false,false,false,false,false,false,false,false,false,false,false,false,false,false,false,false,false]);